NAME          DCAP_2_4_3_500_SS262
ROWS
 N  OBJ
 L  CON1
 L  CON2
 L  CON3
 L  CON4
 L  CON5
 L  CON6
 L  CON7
 L  CON8
 L  CON9
 L  CON10
 L  CON11
 L  CON12
 E  CON13
 E  CON14
 E  CON15
 E  CON16
 E  CON17
 E  CON18
 E  CON19
 E  CON20
 E  CON21
 E  CON22
 E  CON23
 E  CON24
COLUMNS
    x[1,1]    OBJ       6.180167      CON1      1.000000    
    x[1,1]    CON7      -1.000000     CON8      -1.000000   
    x[1,1]    CON9      -1.000000   
    x[1,2]    OBJ       6.563535      CON2      1.000000    
    x[1,2]    CON8      -1.000000     CON9      -1.000000   
    x[1,3]    OBJ       7.443064      CON3      1.000000    
    x[1,3]    CON9      -1.000000   
    x[2,1]    OBJ       6.732585      CON4      1.000000    
    x[2,1]    CON10     -1.000000     CON11     -1.000000   
    x[2,1]    CON12     -1.000000   
    x[2,2]    OBJ       5.039546      CON5      1.000000    
    x[2,2]    CON11     -1.000000     CON12     -1.000000   
    x[2,3]    OBJ       6.054841      CON6      1.000000    
    x[2,3]    CON12     -1.000000   
    MARKER    'MARKER'                'INTORG'
    u[1,1]    OBJ       48.076654     CON1      -1.000000   
    u[1,2]    OBJ       20.066487     CON2      -1.000000   
    u[1,3]    OBJ       32.230043     CON3      -1.000000   
    u[2,1]    OBJ       49.996186     CON4      -1.000000   
    u[2,2]    OBJ       49.466655     CON5      -1.000000   
    u[2,3]    OBJ       27.484319     CON6      -1.000000   
    y[1,1,1]  OBJ       8.132694      CON7      0.859343    
    y[1,1,1]  CON13     1.000000    
    y[1,1,2]  OBJ       5.953361      CON8      0.545690    
    y[1,1,2]  CON14     1.000000    
    y[1,1,3]  OBJ       9.780328      CON9      1.149991    
    y[1,1,3]  CON15     1.000000    
    y[1,2,1]  OBJ       8.018557      CON7      1.070182    
    y[1,2,1]  CON16     1.000000    
    y[1,2,2]  OBJ       6.973945      CON8      1.002343    
    y[1,2,2]  CON17     1.000000    
    y[1,2,3]  OBJ       6.237429      CON9      0.687613    
    y[1,2,3]  CON18     1.000000    
    y[1,3,1]  OBJ       7.608251      CON7      1.452939    
    y[1,3,1]  CON19     1.000000    
    y[1,3,2]  OBJ       7.793236      CON8      0.717967    
    y[1,3,2]  CON20     1.000000    
    y[1,3,3]  OBJ       8.950868      CON9      1.025697    
    y[1,3,3]  CON21     1.000000    
    y[1,4,1]  OBJ       5.097197      CON7      0.626445    
    y[1,4,1]  CON22     1.000000    
    y[1,4,2]  OBJ       7.582060      CON8      1.352688    
    y[1,4,2]  CON23     1.000000    
    y[1,4,3]  OBJ       7.259273      CON9      0.630558    
    y[1,4,3]  CON24     1.000000    
    y[2,1,1]  OBJ       7.100058      CON10     0.859343    
    y[2,1,1]  CON13     1.000000    
    y[2,1,2]  OBJ       7.423997      CON11     0.545690    
    y[2,1,2]  CON14     1.000000    
    y[2,1,3]  OBJ       5.445292      CON12     1.149991    
    y[2,1,3]  CON15     1.000000    
    y[2,2,1]  OBJ       8.798458      CON10     1.070182    
    y[2,2,1]  CON16     1.000000    
    y[2,2,2]  OBJ       8.607856      CON11     1.002343    
    y[2,2,2]  CON17     1.000000    
    y[2,2,3]  OBJ       9.078586      CON12     0.687613    
    y[2,2,3]  CON18     1.000000    
    y[2,3,1]  OBJ       6.869058      CON10     1.452939    
    y[2,3,1]  CON19     1.000000    
    y[2,3,2]  OBJ       5.736027      CON11     0.717967    
    y[2,3,2]  CON20     1.000000    
    y[2,3,3]  OBJ       6.651695      CON12     1.025697    
    y[2,3,3]  CON21     1.000000    
    y[2,4,1]  OBJ       8.731967      CON10     0.626445    
    y[2,4,1]  CON22     1.000000    
    y[2,4,2]  OBJ       9.626367      CON11     1.352688    
    y[2,4,2]  CON23     1.000000    
    y[2,4,3]  OBJ       5.417939      CON12     0.630558    
    y[2,4,3]  CON24     1.000000    
    z[1,1]    OBJ       666.935805    CON13     1.000000    
    z[1,2]    OBJ       562.600615    CON14     1.000000    
    z[1,3]    OBJ       976.112645    CON15     1.000000    
    z[2,1]    OBJ       562.758562    CON16     1.000000    
    z[2,2]    OBJ       808.891782    CON17     1.000000    
    z[2,3]    OBJ       584.641166    CON18     1.000000    
    z[3,1]    OBJ       624.574284    CON19     1.000000    
    z[3,2]    OBJ       909.940230    CON20     1.000000    
    z[3,3]    OBJ       649.499469    CON21     1.000000    
    z[4,1]    OBJ       800.698217    CON22     1.000000    
    z[4,2]    OBJ       890.915425    CON23     1.000000    
    z[4,3]    OBJ       945.966717    CON24     1.000000    
    MARKER    'MARKER'                 'INTEND'
RHS
    RHS       CON1      -0.000000     CON2      -0.000000   
    RHS       CON3      -0.000000     CON4      -0.000000   
    RHS       CON5      -0.000000     CON6      -0.000000   
    RHS       CON7      -0.000000     CON8      -0.000000   
    RHS       CON9      -0.000000     CON10     -0.000000   
    RHS       CON11     -0.000000     CON12     -0.000000   
    RHS       CON13     1.000000      CON14     1.000000    
    RHS       CON15     1.000000      CON16     1.000000    
    RHS       CON17     1.000000      CON18     1.000000    
    RHS       CON19     1.000000      CON20     1.000000    
    RHS       CON21     1.000000      CON22     1.000000    
    RHS       CON23     1.000000      CON24     1.000000    
BOUNDS
 BV BOUND     u[1,1]  
 BV BOUND     u[1,2]  
 BV BOUND     u[1,3]  
 BV BOUND     u[2,1]  
 BV BOUND     u[2,2]  
 BV BOUND     u[2,3]  
 BV BOUND     y[1,1,1]
 BV BOUND     y[1,1,2]
 BV BOUND     y[1,1,3]
 BV BOUND     y[1,2,1]
 BV BOUND     y[1,2,2]
 BV BOUND     y[1,2,3]
 BV BOUND     y[1,3,1]
 BV BOUND     y[1,3,2]
 BV BOUND     y[1,3,3]
 BV BOUND     y[1,4,1]
 BV BOUND     y[1,4,2]
 BV BOUND     y[1,4,3]
 BV BOUND     y[2,1,1]
 BV BOUND     y[2,1,2]
 BV BOUND     y[2,1,3]
 BV BOUND     y[2,2,1]
 BV BOUND     y[2,2,2]
 BV BOUND     y[2,2,3]
 BV BOUND     y[2,3,1]
 BV BOUND     y[2,3,2]
 BV BOUND     y[2,3,3]
 BV BOUND     y[2,4,1]
 BV BOUND     y[2,4,2]
 BV BOUND     y[2,4,3]
 BV BOUND     z[1,1]  
 BV BOUND     z[1,2]  
 BV BOUND     z[1,3]  
 BV BOUND     z[2,1]  
 BV BOUND     z[2,2]  
 BV BOUND     z[2,3]  
 BV BOUND     z[3,1]  
 BV BOUND     z[3,2]  
 BV BOUND     z[3,3]  
 BV BOUND     z[4,1]  
 BV BOUND     z[4,2]  
 BV BOUND     z[4,3]  
ENDATA
